# Generated by setup_lammps

pair_style      lj/cut 3.00000

mass   1      1000.0000 # L

pair_coeff  1     1     1.0000 1.0000 3.0 # L    L
